# Solution for model r5_t18_m8_9
# Finished Task: 18 / 18
# Makespan: 571.0, Total Distance: 856.0, Total Time: 0.0794
# R O S F
0 0 6 0.0 0.0
1 1 22 0.0 0.0
2 2 7 0.0 0.0
3 3 5 0.0 0.0
4 4 8 0.0 0.0
5 3 9 52.0 80.0
6 0 16 384.0 412.0
7 2 21 40.0 69.0
8 4 18 71.0 95.0
9 3 12 154.0 174.0
10 4 19 456.0 485.0
11 0 -1 545.0 571.0
12 3 20 390.0 419.0
13 1 -1 469.0 504.0
14 2 -1 473.0 497.0
15 3 -1 505.0 530.0
16 0 11 433.0 456.0
17 2 14 433.0 462.0
18 4 10 255.0 287.0
19 4 -1 524.0 551.0
20 3 15 475.0 496.0
21 2 17 322.0 360.0
22 1 13 412.0 433.0
